p tw 112 168
1 2
1 16
1 55
2 25
2 103
3 14
3 46
4 5
5 6
6 7
7 8
8 9
9 10
10 11
11 12
12 13
13 15
14 17
14 94
15 16
17 9
17 18
18 19
18 34
19 20
19 88
20 21
20 56
21 22
21 64
22 23
22 107
23 13
23 24
24 26
24 43
25 36
25 95
26 27
26 112
27 28
27 81
28 29
28 73
29 30
29 63
30 31
31 12
31 32
32 33
32 77
33 34
33 67
34 35
35 37
36 47
36 50
37 38
37 60
38 39
38 72
39 40
39 106
40 41
41 42
41 66
42 43
42 52
43 44
44 45
44 100
45 46
45 84
46 48
47 35
47 58
48 49
48 71
49 6
49 50
50 51
51 52
51 87
52 53
53 10
53 54
54 55
54 110
55 56
56 57
57 59
57 78
58 69
58 109
59 5
59 60
60 61
61 62
61 93
62 63
62 85
63 64
64 65
65 7
65 66
66 67
67 68
68 70
68 111
69 80
69 99
70 71
70 97
71 72
72 73
73 74
74 75
74 101
75 76
75 92
76 77
76 108
77 78
78 79
79 81
79 96
80 89
80 91
81 82
82 8
82 83
83 16
83 84
84 85
85 86
86 87
86 105
87 88
88 89
89 90
90 15
90 92
91 40
91 102
92 93
93 94
94 95
95 96
96 97
97 98
98 11
98 99
99 100
100 101
101 103
102 3
102 30
103 104
104 4
104 105
105 106
106 107
107 108
108 109
109 110
110 111
111 112
112 4
